predicate array_int_element2d_nonshifted_flat(var int: idx1,var int: idx2,array [int] of var int: x,var int: c,int: numRows,int: offset1,int: offset2);
predicate fzn_all_different_int(array [int] of var int: x);
array [1..8] of int: X_INTRODUCED_30_ = [1,-1,-1,-1,-1,-1,-1,-1];
array [1..196] of int: X_INTRODUCED_35_ = [0,4727,1204,6363,3657,3130,2414,562,462,5654,1712,1604,2367,2200,4727,0,3587,2012,1841,6977,6500,5187,5028,2327,4148,4723,3635,3124,1204,3587,0,5162,2458,3677,3070,1742,1444,4462,1184,1520,1497,1103,6363,2012,5162,0,2799,8064,7727,6877,6580,1402,5366,5946,4679,4377,3657,1841,2458,2799,0,5329,4946,4200,3824,2011,2573,3156,1923,1579,3130,6977,3677,8064,5329,0,743,3208,2669,6928,2830,2266,3407,3853,2414,6500,3070,7727,4946,743,0,2467,1951,6673,2380,1794,3050,3405,562,5187,1742,6877,4200,3208,2467,0,718,6202,2240,2050,2920,2762,462,5028,1444,6580,3824,2669,1951,718,0,5788,1601,1343,2330,2291,5654,2327,4462,1402,2011,6928,6673,6202,5788,0,4391,4946,3648,3500,1712,4148,1184,5366,2573,2830,2380,2240,1601,4391,0,585,765,1029,1604,4723,1520,5946,3156,2266,1794,2050,1343,4946,585,0,1298,1612,2367,3635,1497,4679,1923,3407,3050,2920,2330,3648,765,1298,0,646,2200,3124,1103,4377,1579,3853,3405,2762,2291,3500,1029,1612,646,0];
var 1..12: Depot:: output_var;
var {1,2,3,4,5,6,8,9,10,11,12}: X_INTRODUCED_1_;
var {2,3,4,5,6,8,9,10,11,12}: X_INTRODUCED_2_;
var {2,3,4,5,6,8,9,10,11,12}: X_INTRODUCED_3_;
var {2,3,4,5,6,8,9,10,11,12}: X_INTRODUCED_4_;
var {2,3,4,5,6,8,9,10,11,12}: X_INTRODUCED_5_;
var {2,3,4,5,6,8,9,10,11,12}: X_INTRODUCED_6_;
var 2..12: X_INTRODUCED_8_;
var {2,3,4,5,6,8,9,10,11,12}: X_INTRODUCED_9_;
var {2,3,4,5,6,8,9,10,11,12}: X_INTRODUCED_10_;
var {2,3,4,5,6,8,9,10,11,12}: X_INTRODUCED_11_;
var {2,3,4,5,6,8,9,10,11,12}: X_INTRODUCED_12_;
var {2,3,4,5,6,8,9,10,11,12}: X_INTRODUCED_13_;
var 0..56448: ADist:: output_var:: is_defined_var;
var 0..56448: BDist:: output_var:: is_defined_var;
var 0..56448: objective:: computed_domain:: is_defined_var:: output_var;
var 0..8064: X_INTRODUCED_34_ ::var_is_introduced :: is_defined_var;
var 0..8064: X_INTRODUCED_36_ ::var_is_introduced :: is_defined_var;
var 0..8064: X_INTRODUCED_37_ ::var_is_introduced :: is_defined_var;
var 0..8064: X_INTRODUCED_38_ ::var_is_introduced :: is_defined_var;
var 0..8064: X_INTRODUCED_39_ ::var_is_introduced :: is_defined_var;
var 0..8064: X_INTRODUCED_40_ ::var_is_introduced :: is_defined_var;
var 0..8064: X_INTRODUCED_41_ ::var_is_introduced :: is_defined_var;
var 0..8064: X_INTRODUCED_42_ ::var_is_introduced :: is_defined_var;
var 0..8064: X_INTRODUCED_43_ ::var_is_introduced :: is_defined_var;
var 0..8064: X_INTRODUCED_44_ ::var_is_introduced :: is_defined_var;
var 0..8064: X_INTRODUCED_45_ ::var_is_introduced :: is_defined_var;
var 0..8064: X_INTRODUCED_46_ ::var_is_introduced :: is_defined_var;
var 0..8064: X_INTRODUCED_47_ ::var_is_introduced :: is_defined_var;
var 0..8064: X_INTRODUCED_48_ ::var_is_introduced :: is_defined_var;
var bool: X_INTRODUCED_66_ ::var_is_introduced :: is_defined_var;
var bool: X_INTRODUCED_67_ ::var_is_introduced :: is_defined_var;
var bool: X_INTRODUCED_68_ ::var_is_introduced :: is_defined_var;
var bool: X_INTRODUCED_69_ ::var_is_introduced :: is_defined_var;
var bool: X_INTRODUCED_70_ ::var_is_introduced :: is_defined_var;
var bool: X_INTRODUCED_71_ ::var_is_introduced :: is_defined_var;
var bool: X_INTRODUCED_73_ ::var_is_introduced :: is_defined_var;
var bool: X_INTRODUCED_74_ ::var_is_introduced :: is_defined_var;
var bool: X_INTRODUCED_75_ ::var_is_introduced :: is_defined_var;
var bool: X_INTRODUCED_76_ ::var_is_introduced :: is_defined_var;
var bool: X_INTRODUCED_77_ ::var_is_introduced :: is_defined_var;
var bool: X_INTRODUCED_78_ ::var_is_introduced :: is_defined_var;
var bool: X_INTRODUCED_81_ ::var_is_introduced :: is_defined_var;
var bool: X_INTRODUCED_82_ ::var_is_introduced :: is_defined_var;
var bool: X_INTRODUCED_83_ ::var_is_introduced :: is_defined_var;
var bool: X_INTRODUCED_84_ ::var_is_introduced :: is_defined_var;
var bool: X_INTRODUCED_85_ ::var_is_introduced :: is_defined_var;
var bool: X_INTRODUCED_86_ ::var_is_introduced :: is_defined_var;
var bool: X_INTRODUCED_88_ ::var_is_introduced :: is_defined_var;
var bool: X_INTRODUCED_89_ ::var_is_introduced :: is_defined_var;
var bool: X_INTRODUCED_90_ ::var_is_introduced :: is_defined_var;
var bool: X_INTRODUCED_91_ ::var_is_introduced :: is_defined_var;
var bool: X_INTRODUCED_92_ ::var_is_introduced :: is_defined_var;
var bool: X_INTRODUCED_93_ ::var_is_introduced :: is_defined_var;
var bool: X_INTRODUCED_96_ ::var_is_introduced :: is_defined_var;
var bool: X_INTRODUCED_97_ ::var_is_introduced :: is_defined_var;
var bool: X_INTRODUCED_98_ ::var_is_introduced :: is_defined_var;
var bool: X_INTRODUCED_99_ ::var_is_introduced :: is_defined_var;
var bool: X_INTRODUCED_100_ ::var_is_introduced :: is_defined_var;
var bool: X_INTRODUCED_101_ ::var_is_introduced :: is_defined_var;
var bool: X_INTRODUCED_103_ ::var_is_introduced :: is_defined_var;
var bool: X_INTRODUCED_104_ ::var_is_introduced :: is_defined_var;
var bool: X_INTRODUCED_105_ ::var_is_introduced :: is_defined_var;
var bool: X_INTRODUCED_106_ ::var_is_introduced :: is_defined_var;
var bool: X_INTRODUCED_107_ ::var_is_introduced :: is_defined_var;
var bool: X_INTRODUCED_108_ ::var_is_introduced :: is_defined_var;
var bool: X_INTRODUCED_111_ ::var_is_introduced :: is_defined_var;
var bool: X_INTRODUCED_112_ ::var_is_introduced :: is_defined_var;
var bool: X_INTRODUCED_113_ ::var_is_introduced :: is_defined_var;
var bool: X_INTRODUCED_114_ ::var_is_introduced :: is_defined_var;
var bool: X_INTRODUCED_115_ ::var_is_introduced :: is_defined_var;
var bool: X_INTRODUCED_116_ ::var_is_introduced :: is_defined_var;
var bool: X_INTRODUCED_118_ ::var_is_introduced :: is_defined_var;
var bool: X_INTRODUCED_119_ ::var_is_introduced :: is_defined_var;
var bool: X_INTRODUCED_120_ ::var_is_introduced :: is_defined_var;
var bool: X_INTRODUCED_121_ ::var_is_introduced :: is_defined_var;
var bool: X_INTRODUCED_122_ ::var_is_introduced :: is_defined_var;
var bool: X_INTRODUCED_123_ ::var_is_introduced :: is_defined_var;
var bool: X_INTRODUCED_126_ ::var_is_introduced :: is_defined_var;
var bool: X_INTRODUCED_127_ ::var_is_introduced :: is_defined_var;
var bool: X_INTRODUCED_128_ ::var_is_introduced :: is_defined_var;
var bool: X_INTRODUCED_129_ ::var_is_introduced :: is_defined_var;
var bool: X_INTRODUCED_130_ ::var_is_introduced :: is_defined_var;
var bool: X_INTRODUCED_131_ ::var_is_introduced :: is_defined_var;
var bool: X_INTRODUCED_133_ ::var_is_introduced :: is_defined_var;
var bool: X_INTRODUCED_134_ ::var_is_introduced :: is_defined_var;
var bool: X_INTRODUCED_135_ ::var_is_introduced :: is_defined_var;
var bool: X_INTRODUCED_136_ ::var_is_introduced :: is_defined_var;
var bool: X_INTRODUCED_137_ ::var_is_introduced :: is_defined_var;
var bool: X_INTRODUCED_138_ ::var_is_introduced :: is_defined_var;
var bool: X_INTRODUCED_156_ ::var_is_introduced :: is_defined_var;
var bool: X_INTRODUCED_157_ ::var_is_introduced :: is_defined_var;
var bool: X_INTRODUCED_158_ ::var_is_introduced :: is_defined_var;
var bool: X_INTRODUCED_159_ ::var_is_introduced :: is_defined_var;
var bool: X_INTRODUCED_160_ ::var_is_introduced :: is_defined_var;
var bool: X_INTRODUCED_161_ ::var_is_introduced :: is_defined_var;
var bool: X_INTRODUCED_163_ ::var_is_introduced :: is_defined_var;
var bool: X_INTRODUCED_164_ ::var_is_introduced :: is_defined_var;
var bool: X_INTRODUCED_165_ ::var_is_introduced :: is_defined_var;
var bool: X_INTRODUCED_166_ ::var_is_introduced :: is_defined_var;
var bool: X_INTRODUCED_167_ ::var_is_introduced :: is_defined_var;
var bool: X_INTRODUCED_168_ ::var_is_introduced :: is_defined_var;
var bool: X_INTRODUCED_171_ ::var_is_introduced :: is_defined_var;
var bool: X_INTRODUCED_172_ ::var_is_introduced :: is_defined_var;
var bool: X_INTRODUCED_173_ ::var_is_introduced :: is_defined_var;
var bool: X_INTRODUCED_174_ ::var_is_introduced :: is_defined_var;
var bool: X_INTRODUCED_175_ ::var_is_introduced :: is_defined_var;
var bool: X_INTRODUCED_176_ ::var_is_introduced :: is_defined_var;
var bool: X_INTRODUCED_178_ ::var_is_introduced :: is_defined_var;
var bool: X_INTRODUCED_179_ ::var_is_introduced :: is_defined_var;
var bool: X_INTRODUCED_180_ ::var_is_introduced :: is_defined_var;
var bool: X_INTRODUCED_181_ ::var_is_introduced :: is_defined_var;
var bool: X_INTRODUCED_182_ ::var_is_introduced :: is_defined_var;
var bool: X_INTRODUCED_183_ ::var_is_introduced :: is_defined_var;
var bool: X_INTRODUCED_186_ ::var_is_introduced :: is_defined_var;
var bool: X_INTRODUCED_187_ ::var_is_introduced :: is_defined_var;
var bool: X_INTRODUCED_188_ ::var_is_introduced :: is_defined_var;
var bool: X_INTRODUCED_189_ ::var_is_introduced :: is_defined_var;
var bool: X_INTRODUCED_190_ ::var_is_introduced :: is_defined_var;
var bool: X_INTRODUCED_191_ ::var_is_introduced :: is_defined_var;
var bool: X_INTRODUCED_193_ ::var_is_introduced :: is_defined_var;
var bool: X_INTRODUCED_194_ ::var_is_introduced :: is_defined_var;
var bool: X_INTRODUCED_195_ ::var_is_introduced :: is_defined_var;
var bool: X_INTRODUCED_196_ ::var_is_introduced :: is_defined_var;
var bool: X_INTRODUCED_197_ ::var_is_introduced :: is_defined_var;
var bool: X_INTRODUCED_198_ ::var_is_introduced :: is_defined_var;
var bool: X_INTRODUCED_201_ ::var_is_introduced :: is_defined_var;
var bool: X_INTRODUCED_202_ ::var_is_introduced :: is_defined_var;
var bool: X_INTRODUCED_203_ ::var_is_introduced :: is_defined_var;
var bool: X_INTRODUCED_204_ ::var_is_introduced :: is_defined_var;
var bool: X_INTRODUCED_205_ ::var_is_introduced :: is_defined_var;
var bool: X_INTRODUCED_206_ ::var_is_introduced :: is_defined_var;
var bool: X_INTRODUCED_208_ ::var_is_introduced :: is_defined_var;
var bool: X_INTRODUCED_209_ ::var_is_introduced :: is_defined_var;
var bool: X_INTRODUCED_210_ ::var_is_introduced :: is_defined_var;
var bool: X_INTRODUCED_211_ ::var_is_introduced :: is_defined_var;
var bool: X_INTRODUCED_212_ ::var_is_introduced :: is_defined_var;
var bool: X_INTRODUCED_213_ ::var_is_introduced :: is_defined_var;
var bool: X_INTRODUCED_216_ ::var_is_introduced :: is_defined_var;
var bool: X_INTRODUCED_217_ ::var_is_introduced :: is_defined_var;
var bool: X_INTRODUCED_218_ ::var_is_introduced :: is_defined_var;
var bool: X_INTRODUCED_219_ ::var_is_introduced :: is_defined_var;
var bool: X_INTRODUCED_220_ ::var_is_introduced :: is_defined_var;
var bool: X_INTRODUCED_221_ ::var_is_introduced :: is_defined_var;
var bool: X_INTRODUCED_223_ ::var_is_introduced :: is_defined_var;
var bool: X_INTRODUCED_224_ ::var_is_introduced :: is_defined_var;
var bool: X_INTRODUCED_225_ ::var_is_introduced :: is_defined_var;
var bool: X_INTRODUCED_226_ ::var_is_introduced :: is_defined_var;
var bool: X_INTRODUCED_227_ ::var_is_introduced :: is_defined_var;
var bool: X_INTRODUCED_228_ ::var_is_introduced :: is_defined_var;
var bool: X_INTRODUCED_232_ ::var_is_introduced :: is_defined_var;
var bool: X_INTRODUCED_233_ ::var_is_introduced :: is_defined_var;
var bool: X_INTRODUCED_234_ ::var_is_introduced :: is_defined_var;
var bool: X_INTRODUCED_237_ ::var_is_introduced :: is_defined_var;
var bool: X_INTRODUCED_238_ ::var_is_introduced :: is_defined_var;
var bool: X_INTRODUCED_241_ ::var_is_introduced :: is_defined_var;
var bool: X_INTRODUCED_242_ ::var_is_introduced :: is_defined_var;
var bool: X_INTRODUCED_245_ ::var_is_introduced :: is_defined_var;
var bool: X_INTRODUCED_246_ ::var_is_introduced :: is_defined_var;
var bool: X_INTRODUCED_249_ ::var_is_introduced :: is_defined_var;
var bool: X_INTRODUCED_250_ ::var_is_introduced :: is_defined_var;
var bool: X_INTRODUCED_253_ ::var_is_introduced :: is_defined_var;
var bool: X_INTRODUCED_254_ ::var_is_introduced :: is_defined_var;
var bool: X_INTRODUCED_256_ ::var_is_introduced :: is_defined_var;
var bool: X_INTRODUCED_257_ ::var_is_introduced :: is_defined_var;
var bool: X_INTRODUCED_258_ ::var_is_introduced :: is_defined_var;
var bool: X_INTRODUCED_261_ ::var_is_introduced :: is_defined_var;
var bool: X_INTRODUCED_262_ ::var_is_introduced :: is_defined_var;
var bool: X_INTRODUCED_265_ ::var_is_introduced :: is_defined_var;
var bool: X_INTRODUCED_266_ ::var_is_introduced :: is_defined_var;
var bool: X_INTRODUCED_269_ ::var_is_introduced :: is_defined_var;
var bool: X_INTRODUCED_270_ ::var_is_introduced :: is_defined_var;
var bool: X_INTRODUCED_273_ ::var_is_introduced :: is_defined_var;
var bool: X_INTRODUCED_274_ ::var_is_introduced :: is_defined_var;
var bool: X_INTRODUCED_277_ ::var_is_introduced :: is_defined_var;
var bool: X_INTRODUCED_278_ ::var_is_introduced :: is_defined_var;
array [1..7] of var int: TourALoc:: output_array([1..7]) = [1,X_INTRODUCED_1_,X_INTRODUCED_2_,X_INTRODUCED_3_,X_INTRODUCED_4_,X_INTRODUCED_5_,X_INTRODUCED_6_];
array [1..7] of var int: TourBLoc:: output_array([1..7]) = [7,X_INTRODUCED_8_,X_INTRODUCED_9_,X_INTRODUCED_10_,X_INTRODUCED_11_,X_INTRODUCED_12_,X_INTRODUCED_13_];
array [1..14] of var int: X_INTRODUCED_49_ ::var_is_introduced  = [1,X_INTRODUCED_1_,X_INTRODUCED_2_,X_INTRODUCED_3_,X_INTRODUCED_4_,X_INTRODUCED_5_,X_INTRODUCED_6_,7,X_INTRODUCED_8_,X_INTRODUCED_9_,X_INTRODUCED_10_,X_INTRODUCED_11_,X_INTRODUCED_12_,X_INTRODUCED_13_];
array [1..6] of var int: X_INTRODUCED_230_ ::var_is_introduced  = [X_INTRODUCED_1_,X_INTRODUCED_2_,X_INTRODUCED_3_,X_INTRODUCED_4_,X_INTRODUCED_5_,X_INTRODUCED_6_];
array [1..6] of var int: X_INTRODUCED_231_ ::var_is_introduced  = [X_INTRODUCED_8_,X_INTRODUCED_9_,X_INTRODUCED_10_,X_INTRODUCED_11_,X_INTRODUCED_12_,X_INTRODUCED_13_];
constraint int_lin_eq(X_INTRODUCED_30_,[ADist,X_INTRODUCED_34_,X_INTRODUCED_36_,X_INTRODUCED_37_,X_INTRODUCED_38_,X_INTRODUCED_39_,X_INTRODUCED_40_,X_INTRODUCED_41_],0):: defines_var(ADist);
constraint int_lin_eq(X_INTRODUCED_30_,[BDist,X_INTRODUCED_42_,X_INTRODUCED_43_,X_INTRODUCED_44_,X_INTRODUCED_45_,X_INTRODUCED_46_,X_INTRODUCED_47_,X_INTRODUCED_48_],0):: defines_var(BDist);
constraint int_max(ADist,BDist,objective):: defines_var(objective);
constraint array_int_element2d_nonshifted_flat(1,X_INTRODUCED_1_,X_INTRODUCED_35_,X_INTRODUCED_34_,14,1,1);
constraint array_int_element2d_nonshifted_flat(X_INTRODUCED_1_,X_INTRODUCED_2_,X_INTRODUCED_35_,X_INTRODUCED_36_,14,1,1);
constraint array_int_element2d_nonshifted_flat(X_INTRODUCED_2_,X_INTRODUCED_3_,X_INTRODUCED_35_,X_INTRODUCED_37_,14,1,1);
constraint array_int_element2d_nonshifted_flat(X_INTRODUCED_3_,X_INTRODUCED_4_,X_INTRODUCED_35_,X_INTRODUCED_38_,14,1,1);
constraint array_int_element2d_nonshifted_flat(X_INTRODUCED_4_,X_INTRODUCED_5_,X_INTRODUCED_35_,X_INTRODUCED_39_,14,1,1);
constraint array_int_element2d_nonshifted_flat(X_INTRODUCED_5_,X_INTRODUCED_6_,X_INTRODUCED_35_,X_INTRODUCED_40_,14,1,1);
constraint array_int_element2d_nonshifted_flat(X_INTRODUCED_6_,1,X_INTRODUCED_35_,X_INTRODUCED_41_,14,1,1);
constraint array_int_element2d_nonshifted_flat(7,X_INTRODUCED_8_,X_INTRODUCED_35_,X_INTRODUCED_42_,14,1,1);
constraint array_int_element2d_nonshifted_flat(X_INTRODUCED_8_,X_INTRODUCED_9_,X_INTRODUCED_35_,X_INTRODUCED_43_,14,1,1);
constraint array_int_element2d_nonshifted_flat(X_INTRODUCED_9_,X_INTRODUCED_10_,X_INTRODUCED_35_,X_INTRODUCED_44_,14,1,1);
constraint array_int_element2d_nonshifted_flat(X_INTRODUCED_10_,X_INTRODUCED_11_,X_INTRODUCED_35_,X_INTRODUCED_45_,14,1,1);
constraint array_int_element2d_nonshifted_flat(X_INTRODUCED_11_,X_INTRODUCED_12_,X_INTRODUCED_35_,X_INTRODUCED_46_,14,1,1);
constraint array_int_element2d_nonshifted_flat(X_INTRODUCED_12_,X_INTRODUCED_13_,X_INTRODUCED_35_,X_INTRODUCED_47_,14,1,1);
constraint array_int_element2d_nonshifted_flat(X_INTRODUCED_13_,7,X_INTRODUCED_35_,X_INTRODUCED_48_,14,1,1);
constraint bool_clause([X_INTRODUCED_66_,X_INTRODUCED_67_,X_INTRODUCED_68_,X_INTRODUCED_69_,X_INTRODUCED_70_,X_INTRODUCED_71_,X_INTRODUCED_73_,X_INTRODUCED_74_,X_INTRODUCED_75_,X_INTRODUCED_76_,X_INTRODUCED_77_,X_INTRODUCED_78_],[]);
constraint bool_clause([X_INTRODUCED_81_,X_INTRODUCED_82_,X_INTRODUCED_83_,X_INTRODUCED_84_,X_INTRODUCED_85_,X_INTRODUCED_86_,X_INTRODUCED_88_,X_INTRODUCED_89_,X_INTRODUCED_90_,X_INTRODUCED_91_,X_INTRODUCED_92_,X_INTRODUCED_93_],[]);
constraint bool_clause([X_INTRODUCED_96_,X_INTRODUCED_97_,X_INTRODUCED_98_,X_INTRODUCED_99_,X_INTRODUCED_100_,X_INTRODUCED_101_,X_INTRODUCED_103_,X_INTRODUCED_104_,X_INTRODUCED_105_,X_INTRODUCED_106_,X_INTRODUCED_107_,X_INTRODUCED_108_],[]);
constraint bool_clause([X_INTRODUCED_111_,X_INTRODUCED_112_,X_INTRODUCED_113_,X_INTRODUCED_114_,X_INTRODUCED_115_,X_INTRODUCED_116_,X_INTRODUCED_118_,X_INTRODUCED_119_,X_INTRODUCED_120_,X_INTRODUCED_121_,X_INTRODUCED_122_,X_INTRODUCED_123_],[]);
constraint bool_clause([X_INTRODUCED_126_,X_INTRODUCED_127_,X_INTRODUCED_128_,X_INTRODUCED_129_,X_INTRODUCED_130_,X_INTRODUCED_131_,X_INTRODUCED_133_,X_INTRODUCED_134_,X_INTRODUCED_135_,X_INTRODUCED_136_,X_INTRODUCED_137_,X_INTRODUCED_138_],[]);
constraint bool_clause([X_INTRODUCED_156_,X_INTRODUCED_157_,X_INTRODUCED_158_,X_INTRODUCED_159_,X_INTRODUCED_160_,X_INTRODUCED_161_,X_INTRODUCED_163_,X_INTRODUCED_164_,X_INTRODUCED_165_,X_INTRODUCED_166_,X_INTRODUCED_167_,X_INTRODUCED_168_],[]);
constraint bool_clause([X_INTRODUCED_171_,X_INTRODUCED_172_,X_INTRODUCED_173_,X_INTRODUCED_174_,X_INTRODUCED_175_,X_INTRODUCED_176_,X_INTRODUCED_178_,X_INTRODUCED_179_,X_INTRODUCED_180_,X_INTRODUCED_181_,X_INTRODUCED_182_,X_INTRODUCED_183_],[]);
constraint bool_clause([X_INTRODUCED_186_,X_INTRODUCED_187_,X_INTRODUCED_188_,X_INTRODUCED_189_,X_INTRODUCED_190_,X_INTRODUCED_191_,X_INTRODUCED_193_,X_INTRODUCED_194_,X_INTRODUCED_195_,X_INTRODUCED_196_,X_INTRODUCED_197_,X_INTRODUCED_198_],[]);
constraint bool_clause([X_INTRODUCED_201_,X_INTRODUCED_202_,X_INTRODUCED_203_,X_INTRODUCED_204_,X_INTRODUCED_205_,X_INTRODUCED_206_,X_INTRODUCED_208_,X_INTRODUCED_209_,X_INTRODUCED_210_,X_INTRODUCED_211_,X_INTRODUCED_212_,X_INTRODUCED_213_],[]);
constraint bool_clause([X_INTRODUCED_216_,X_INTRODUCED_217_,X_INTRODUCED_218_,X_INTRODUCED_219_,X_INTRODUCED_220_,X_INTRODUCED_221_,X_INTRODUCED_223_,X_INTRODUCED_224_,X_INTRODUCED_225_,X_INTRODUCED_226_,X_INTRODUCED_227_,X_INTRODUCED_228_],[]);
constraint fzn_all_different_int(X_INTRODUCED_230_);
constraint fzn_all_different_int(X_INTRODUCED_231_);
constraint bool_clause([X_INTRODUCED_232_,X_INTRODUCED_233_,X_INTRODUCED_234_],[]);
constraint bool_clause([X_INTRODUCED_232_,X_INTRODUCED_234_,X_INTRODUCED_237_,X_INTRODUCED_238_],[]);
constraint bool_clause([X_INTRODUCED_232_,X_INTRODUCED_234_,X_INTRODUCED_238_,X_INTRODUCED_241_,X_INTRODUCED_242_],[]);
constraint bool_clause([X_INTRODUCED_232_,X_INTRODUCED_234_,X_INTRODUCED_238_,X_INTRODUCED_242_,X_INTRODUCED_245_,X_INTRODUCED_246_],[]);
constraint bool_clause([X_INTRODUCED_232_,X_INTRODUCED_234_,X_INTRODUCED_238_,X_INTRODUCED_242_,X_INTRODUCED_246_,X_INTRODUCED_249_,X_INTRODUCED_250_],[]);
constraint bool_clause([X_INTRODUCED_232_,X_INTRODUCED_234_,X_INTRODUCED_238_,X_INTRODUCED_242_,X_INTRODUCED_246_,X_INTRODUCED_250_,X_INTRODUCED_253_,X_INTRODUCED_254_],[]);
constraint bool_clause([X_INTRODUCED_256_,X_INTRODUCED_257_,X_INTRODUCED_258_],[]);
constraint bool_clause([X_INTRODUCED_256_,X_INTRODUCED_258_,X_INTRODUCED_261_,X_INTRODUCED_262_],[]);
constraint bool_clause([X_INTRODUCED_256_,X_INTRODUCED_258_,X_INTRODUCED_262_,X_INTRODUCED_265_,X_INTRODUCED_266_],[]);
constraint bool_clause([X_INTRODUCED_256_,X_INTRODUCED_258_,X_INTRODUCED_262_,X_INTRODUCED_266_,X_INTRODUCED_269_,X_INTRODUCED_270_],[]);
constraint bool_clause([X_INTRODUCED_256_,X_INTRODUCED_258_,X_INTRODUCED_262_,X_INTRODUCED_266_,X_INTRODUCED_270_,X_INTRODUCED_273_,X_INTRODUCED_274_],[]);
constraint bool_clause([X_INTRODUCED_256_,X_INTRODUCED_258_,X_INTRODUCED_262_,X_INTRODUCED_266_,X_INTRODUCED_270_,X_INTRODUCED_274_,X_INTRODUCED_277_,X_INTRODUCED_278_],[]);
constraint int_eq_reif(X_INTRODUCED_1_,2,X_INTRODUCED_66_):: defines_var(X_INTRODUCED_66_);
constraint int_eq_reif(X_INTRODUCED_2_,2,X_INTRODUCED_67_):: defines_var(X_INTRODUCED_67_);
constraint int_eq_reif(X_INTRODUCED_3_,2,X_INTRODUCED_68_):: defines_var(X_INTRODUCED_68_);
constraint int_eq_reif(X_INTRODUCED_4_,2,X_INTRODUCED_69_):: defines_var(X_INTRODUCED_69_);
constraint int_eq_reif(X_INTRODUCED_5_,2,X_INTRODUCED_70_):: defines_var(X_INTRODUCED_70_);
constraint int_eq_reif(X_INTRODUCED_6_,2,X_INTRODUCED_71_):: defines_var(X_INTRODUCED_71_);
constraint int_eq_reif(X_INTRODUCED_8_,2,X_INTRODUCED_73_):: defines_var(X_INTRODUCED_73_);
constraint int_eq_reif(X_INTRODUCED_9_,2,X_INTRODUCED_74_):: defines_var(X_INTRODUCED_74_);
constraint int_eq_reif(X_INTRODUCED_10_,2,X_INTRODUCED_75_):: defines_var(X_INTRODUCED_75_);
constraint int_eq_reif(X_INTRODUCED_11_,2,X_INTRODUCED_76_):: defines_var(X_INTRODUCED_76_);
constraint int_eq_reif(X_INTRODUCED_12_,2,X_INTRODUCED_77_):: defines_var(X_INTRODUCED_77_);
constraint int_eq_reif(X_INTRODUCED_13_,2,X_INTRODUCED_78_):: defines_var(X_INTRODUCED_78_);
constraint int_eq_reif(X_INTRODUCED_1_,3,X_INTRODUCED_81_):: defines_var(X_INTRODUCED_81_);
constraint int_eq_reif(X_INTRODUCED_2_,3,X_INTRODUCED_82_):: defines_var(X_INTRODUCED_82_);
constraint int_eq_reif(X_INTRODUCED_3_,3,X_INTRODUCED_83_):: defines_var(X_INTRODUCED_83_);
constraint int_eq_reif(X_INTRODUCED_4_,3,X_INTRODUCED_84_):: defines_var(X_INTRODUCED_84_);
constraint int_eq_reif(X_INTRODUCED_5_,3,X_INTRODUCED_85_):: defines_var(X_INTRODUCED_85_);
constraint int_eq_reif(X_INTRODUCED_6_,3,X_INTRODUCED_86_):: defines_var(X_INTRODUCED_86_);
constraint int_eq_reif(X_INTRODUCED_8_,3,X_INTRODUCED_88_):: defines_var(X_INTRODUCED_88_);
constraint int_eq_reif(X_INTRODUCED_9_,3,X_INTRODUCED_89_):: defines_var(X_INTRODUCED_89_);
constraint int_eq_reif(X_INTRODUCED_10_,3,X_INTRODUCED_90_):: defines_var(X_INTRODUCED_90_);
constraint int_eq_reif(X_INTRODUCED_11_,3,X_INTRODUCED_91_):: defines_var(X_INTRODUCED_91_);
constraint int_eq_reif(X_INTRODUCED_12_,3,X_INTRODUCED_92_):: defines_var(X_INTRODUCED_92_);
constraint int_eq_reif(X_INTRODUCED_13_,3,X_INTRODUCED_93_):: defines_var(X_INTRODUCED_93_);
constraint int_eq_reif(X_INTRODUCED_1_,4,X_INTRODUCED_96_):: defines_var(X_INTRODUCED_96_);
constraint int_eq_reif(X_INTRODUCED_2_,4,X_INTRODUCED_97_):: defines_var(X_INTRODUCED_97_);
constraint int_eq_reif(X_INTRODUCED_3_,4,X_INTRODUCED_98_):: defines_var(X_INTRODUCED_98_);
constraint int_eq_reif(X_INTRODUCED_4_,4,X_INTRODUCED_99_):: defines_var(X_INTRODUCED_99_);
constraint int_eq_reif(X_INTRODUCED_5_,4,X_INTRODUCED_100_):: defines_var(X_INTRODUCED_100_);
constraint int_eq_reif(X_INTRODUCED_6_,4,X_INTRODUCED_101_):: defines_var(X_INTRODUCED_101_);
constraint int_eq_reif(X_INTRODUCED_8_,4,X_INTRODUCED_103_):: defines_var(X_INTRODUCED_103_);
constraint int_eq_reif(X_INTRODUCED_9_,4,X_INTRODUCED_104_):: defines_var(X_INTRODUCED_104_);
constraint int_eq_reif(X_INTRODUCED_10_,4,X_INTRODUCED_105_):: defines_var(X_INTRODUCED_105_);
constraint int_eq_reif(X_INTRODUCED_11_,4,X_INTRODUCED_106_):: defines_var(X_INTRODUCED_106_);
constraint int_eq_reif(X_INTRODUCED_12_,4,X_INTRODUCED_107_):: defines_var(X_INTRODUCED_107_);
constraint int_eq_reif(X_INTRODUCED_13_,4,X_INTRODUCED_108_):: defines_var(X_INTRODUCED_108_);
constraint int_eq_reif(X_INTRODUCED_1_,5,X_INTRODUCED_111_):: defines_var(X_INTRODUCED_111_);
constraint int_eq_reif(X_INTRODUCED_2_,5,X_INTRODUCED_112_):: defines_var(X_INTRODUCED_112_);
constraint int_eq_reif(X_INTRODUCED_3_,5,X_INTRODUCED_113_):: defines_var(X_INTRODUCED_113_);
constraint int_eq_reif(X_INTRODUCED_4_,5,X_INTRODUCED_114_):: defines_var(X_INTRODUCED_114_);
constraint int_eq_reif(X_INTRODUCED_5_,5,X_INTRODUCED_115_):: defines_var(X_INTRODUCED_115_);
constraint int_eq_reif(X_INTRODUCED_6_,5,X_INTRODUCED_116_):: defines_var(X_INTRODUCED_116_);
constraint int_eq_reif(X_INTRODUCED_8_,5,X_INTRODUCED_118_):: defines_var(X_INTRODUCED_118_);
constraint int_eq_reif(X_INTRODUCED_9_,5,X_INTRODUCED_119_):: defines_var(X_INTRODUCED_119_);
constraint int_eq_reif(X_INTRODUCED_10_,5,X_INTRODUCED_120_):: defines_var(X_INTRODUCED_120_);
constraint int_eq_reif(X_INTRODUCED_11_,5,X_INTRODUCED_121_):: defines_var(X_INTRODUCED_121_);
constraint int_eq_reif(X_INTRODUCED_12_,5,X_INTRODUCED_122_):: defines_var(X_INTRODUCED_122_);
constraint int_eq_reif(X_INTRODUCED_13_,5,X_INTRODUCED_123_):: defines_var(X_INTRODUCED_123_);
constraint int_eq_reif(X_INTRODUCED_1_,6,X_INTRODUCED_126_):: defines_var(X_INTRODUCED_126_);
constraint int_eq_reif(X_INTRODUCED_2_,6,X_INTRODUCED_127_):: defines_var(X_INTRODUCED_127_);
constraint int_eq_reif(X_INTRODUCED_3_,6,X_INTRODUCED_128_):: defines_var(X_INTRODUCED_128_);
constraint int_eq_reif(X_INTRODUCED_4_,6,X_INTRODUCED_129_):: defines_var(X_INTRODUCED_129_);
constraint int_eq_reif(X_INTRODUCED_5_,6,X_INTRODUCED_130_):: defines_var(X_INTRODUCED_130_);
constraint int_eq_reif(X_INTRODUCED_6_,6,X_INTRODUCED_131_):: defines_var(X_INTRODUCED_131_);
constraint int_eq_reif(X_INTRODUCED_8_,6,X_INTRODUCED_133_):: defines_var(X_INTRODUCED_133_);
constraint int_eq_reif(X_INTRODUCED_9_,6,X_INTRODUCED_134_):: defines_var(X_INTRODUCED_134_);
constraint int_eq_reif(X_INTRODUCED_10_,6,X_INTRODUCED_135_):: defines_var(X_INTRODUCED_135_);
constraint int_eq_reif(X_INTRODUCED_11_,6,X_INTRODUCED_136_):: defines_var(X_INTRODUCED_136_);
constraint int_eq_reif(X_INTRODUCED_12_,6,X_INTRODUCED_137_):: defines_var(X_INTRODUCED_137_);
constraint int_eq_reif(X_INTRODUCED_13_,6,X_INTRODUCED_138_):: defines_var(X_INTRODUCED_138_);
constraint int_eq_reif(X_INTRODUCED_1_,8,X_INTRODUCED_156_):: defines_var(X_INTRODUCED_156_);
constraint int_eq_reif(X_INTRODUCED_2_,8,X_INTRODUCED_157_):: defines_var(X_INTRODUCED_157_);
constraint int_eq_reif(X_INTRODUCED_3_,8,X_INTRODUCED_158_):: defines_var(X_INTRODUCED_158_);
constraint int_eq_reif(X_INTRODUCED_4_,8,X_INTRODUCED_159_):: defines_var(X_INTRODUCED_159_);
constraint int_eq_reif(X_INTRODUCED_5_,8,X_INTRODUCED_160_):: defines_var(X_INTRODUCED_160_);
constraint int_eq_reif(X_INTRODUCED_6_,8,X_INTRODUCED_161_):: defines_var(X_INTRODUCED_161_);
constraint int_eq_reif(X_INTRODUCED_8_,8,X_INTRODUCED_163_):: defines_var(X_INTRODUCED_163_);
constraint int_eq_reif(X_INTRODUCED_9_,8,X_INTRODUCED_164_):: defines_var(X_INTRODUCED_164_);
constraint int_eq_reif(X_INTRODUCED_10_,8,X_INTRODUCED_165_):: defines_var(X_INTRODUCED_165_);
constraint int_eq_reif(X_INTRODUCED_11_,8,X_INTRODUCED_166_):: defines_var(X_INTRODUCED_166_);
constraint int_eq_reif(X_INTRODUCED_12_,8,X_INTRODUCED_167_):: defines_var(X_INTRODUCED_167_);
constraint int_eq_reif(X_INTRODUCED_13_,8,X_INTRODUCED_168_):: defines_var(X_INTRODUCED_168_);
constraint int_eq_reif(X_INTRODUCED_1_,9,X_INTRODUCED_171_):: defines_var(X_INTRODUCED_171_);
constraint int_eq_reif(X_INTRODUCED_2_,9,X_INTRODUCED_172_):: defines_var(X_INTRODUCED_172_);
constraint int_eq_reif(X_INTRODUCED_3_,9,X_INTRODUCED_173_):: defines_var(X_INTRODUCED_173_);
constraint int_eq_reif(X_INTRODUCED_4_,9,X_INTRODUCED_174_):: defines_var(X_INTRODUCED_174_);
constraint int_eq_reif(X_INTRODUCED_5_,9,X_INTRODUCED_175_):: defines_var(X_INTRODUCED_175_);
constraint int_eq_reif(X_INTRODUCED_6_,9,X_INTRODUCED_176_):: defines_var(X_INTRODUCED_176_);
constraint int_eq_reif(X_INTRODUCED_8_,9,X_INTRODUCED_178_):: defines_var(X_INTRODUCED_178_);
constraint int_eq_reif(X_INTRODUCED_9_,9,X_INTRODUCED_179_):: defines_var(X_INTRODUCED_179_);
constraint int_eq_reif(X_INTRODUCED_10_,9,X_INTRODUCED_180_):: defines_var(X_INTRODUCED_180_);
constraint int_eq_reif(X_INTRODUCED_11_,9,X_INTRODUCED_181_):: defines_var(X_INTRODUCED_181_);
constraint int_eq_reif(X_INTRODUCED_12_,9,X_INTRODUCED_182_):: defines_var(X_INTRODUCED_182_);
constraint int_eq_reif(X_INTRODUCED_13_,9,X_INTRODUCED_183_):: defines_var(X_INTRODUCED_183_);
constraint int_eq_reif(X_INTRODUCED_1_,10,X_INTRODUCED_186_):: defines_var(X_INTRODUCED_186_);
constraint int_eq_reif(X_INTRODUCED_2_,10,X_INTRODUCED_187_):: defines_var(X_INTRODUCED_187_);
constraint int_eq_reif(X_INTRODUCED_3_,10,X_INTRODUCED_188_):: defines_var(X_INTRODUCED_188_);
constraint int_eq_reif(X_INTRODUCED_4_,10,X_INTRODUCED_189_):: defines_var(X_INTRODUCED_189_);
constraint int_eq_reif(X_INTRODUCED_5_,10,X_INTRODUCED_190_):: defines_var(X_INTRODUCED_190_);
constraint int_eq_reif(X_INTRODUCED_6_,10,X_INTRODUCED_191_):: defines_var(X_INTRODUCED_191_);
constraint int_eq_reif(X_INTRODUCED_8_,10,X_INTRODUCED_193_):: defines_var(X_INTRODUCED_193_);
constraint int_eq_reif(X_INTRODUCED_9_,10,X_INTRODUCED_194_):: defines_var(X_INTRODUCED_194_);
constraint int_eq_reif(X_INTRODUCED_10_,10,X_INTRODUCED_195_):: defines_var(X_INTRODUCED_195_);
constraint int_eq_reif(X_INTRODUCED_11_,10,X_INTRODUCED_196_):: defines_var(X_INTRODUCED_196_);
constraint int_eq_reif(X_INTRODUCED_12_,10,X_INTRODUCED_197_):: defines_var(X_INTRODUCED_197_);
constraint int_eq_reif(X_INTRODUCED_13_,10,X_INTRODUCED_198_):: defines_var(X_INTRODUCED_198_);
constraint int_eq_reif(X_INTRODUCED_1_,11,X_INTRODUCED_201_):: defines_var(X_INTRODUCED_201_);
constraint int_eq_reif(X_INTRODUCED_2_,11,X_INTRODUCED_202_):: defines_var(X_INTRODUCED_202_);
constraint int_eq_reif(X_INTRODUCED_3_,11,X_INTRODUCED_203_):: defines_var(X_INTRODUCED_203_);
constraint int_eq_reif(X_INTRODUCED_4_,11,X_INTRODUCED_204_):: defines_var(X_INTRODUCED_204_);
constraint int_eq_reif(X_INTRODUCED_5_,11,X_INTRODUCED_205_):: defines_var(X_INTRODUCED_205_);
constraint int_eq_reif(X_INTRODUCED_6_,11,X_INTRODUCED_206_):: defines_var(X_INTRODUCED_206_);
constraint int_eq_reif(X_INTRODUCED_8_,11,X_INTRODUCED_208_):: defines_var(X_INTRODUCED_208_);
constraint int_eq_reif(X_INTRODUCED_9_,11,X_INTRODUCED_209_):: defines_var(X_INTRODUCED_209_);
constraint int_eq_reif(X_INTRODUCED_10_,11,X_INTRODUCED_210_):: defines_var(X_INTRODUCED_210_);
constraint int_eq_reif(X_INTRODUCED_11_,11,X_INTRODUCED_211_):: defines_var(X_INTRODUCED_211_);
constraint int_eq_reif(X_INTRODUCED_12_,11,X_INTRODUCED_212_):: defines_var(X_INTRODUCED_212_);
constraint int_eq_reif(X_INTRODUCED_13_,11,X_INTRODUCED_213_):: defines_var(X_INTRODUCED_213_);
constraint int_eq_reif(X_INTRODUCED_1_,12,X_INTRODUCED_216_):: defines_var(X_INTRODUCED_216_);
constraint int_eq_reif(X_INTRODUCED_2_,12,X_INTRODUCED_217_):: defines_var(X_INTRODUCED_217_);
constraint int_eq_reif(X_INTRODUCED_3_,12,X_INTRODUCED_218_):: defines_var(X_INTRODUCED_218_);
constraint int_eq_reif(X_INTRODUCED_4_,12,X_INTRODUCED_219_):: defines_var(X_INTRODUCED_219_);
constraint int_eq_reif(X_INTRODUCED_5_,12,X_INTRODUCED_220_):: defines_var(X_INTRODUCED_220_);
constraint int_eq_reif(X_INTRODUCED_6_,12,X_INTRODUCED_221_):: defines_var(X_INTRODUCED_221_);
constraint int_eq_reif(X_INTRODUCED_8_,12,X_INTRODUCED_223_):: defines_var(X_INTRODUCED_223_);
constraint int_eq_reif(X_INTRODUCED_9_,12,X_INTRODUCED_224_):: defines_var(X_INTRODUCED_224_);
constraint int_eq_reif(X_INTRODUCED_10_,12,X_INTRODUCED_225_):: defines_var(X_INTRODUCED_225_);
constraint int_eq_reif(X_INTRODUCED_11_,12,X_INTRODUCED_226_):: defines_var(X_INTRODUCED_226_);
constraint int_eq_reif(X_INTRODUCED_12_,12,X_INTRODUCED_227_):: defines_var(X_INTRODUCED_227_);
constraint int_eq_reif(X_INTRODUCED_13_,12,X_INTRODUCED_228_):: defines_var(X_INTRODUCED_228_);
constraint int_eq_reif(1,Depot,X_INTRODUCED_232_):: defines_var(X_INTRODUCED_232_);
constraint int_le_reif(X_INTRODUCED_1_,6,X_INTRODUCED_233_):: defines_var(X_INTRODUCED_233_);
constraint int_eq_reif(X_INTRODUCED_1_,Depot,X_INTRODUCED_234_):: defines_var(X_INTRODUCED_234_);
constraint int_le_reif(X_INTRODUCED_2_,6,X_INTRODUCED_237_):: defines_var(X_INTRODUCED_237_);
constraint int_eq_reif(X_INTRODUCED_2_,Depot,X_INTRODUCED_238_):: defines_var(X_INTRODUCED_238_);
constraint int_le_reif(X_INTRODUCED_3_,6,X_INTRODUCED_241_):: defines_var(X_INTRODUCED_241_);
constraint int_eq_reif(X_INTRODUCED_3_,Depot,X_INTRODUCED_242_):: defines_var(X_INTRODUCED_242_);
constraint int_le_reif(X_INTRODUCED_4_,6,X_INTRODUCED_245_):: defines_var(X_INTRODUCED_245_);
constraint int_eq_reif(X_INTRODUCED_4_,Depot,X_INTRODUCED_246_):: defines_var(X_INTRODUCED_246_);
constraint int_le_reif(X_INTRODUCED_5_,6,X_INTRODUCED_249_):: defines_var(X_INTRODUCED_249_);
constraint int_eq_reif(X_INTRODUCED_5_,Depot,X_INTRODUCED_250_):: defines_var(X_INTRODUCED_250_);
constraint int_le_reif(X_INTRODUCED_6_,6,X_INTRODUCED_253_):: defines_var(X_INTRODUCED_253_);
constraint int_eq_reif(X_INTRODUCED_6_,Depot,X_INTRODUCED_254_):: defines_var(X_INTRODUCED_254_);
constraint int_eq_reif(7,Depot,X_INTRODUCED_256_):: defines_var(X_INTRODUCED_256_);
constraint int_le_reif(7,X_INTRODUCED_8_,X_INTRODUCED_257_):: defines_var(X_INTRODUCED_257_);
constraint int_eq_reif(X_INTRODUCED_8_,Depot,X_INTRODUCED_258_):: defines_var(X_INTRODUCED_258_);
constraint int_le_reif(7,X_INTRODUCED_9_,X_INTRODUCED_261_):: defines_var(X_INTRODUCED_261_);
constraint int_eq_reif(X_INTRODUCED_9_,Depot,X_INTRODUCED_262_):: defines_var(X_INTRODUCED_262_);
constraint int_le_reif(7,X_INTRODUCED_10_,X_INTRODUCED_265_):: defines_var(X_INTRODUCED_265_);
constraint int_eq_reif(X_INTRODUCED_10_,Depot,X_INTRODUCED_266_):: defines_var(X_INTRODUCED_266_);
constraint int_le_reif(7,X_INTRODUCED_11_,X_INTRODUCED_269_):: defines_var(X_INTRODUCED_269_);
constraint int_eq_reif(X_INTRODUCED_11_,Depot,X_INTRODUCED_270_):: defines_var(X_INTRODUCED_270_);
constraint int_le_reif(7,X_INTRODUCED_12_,X_INTRODUCED_273_):: defines_var(X_INTRODUCED_273_);
constraint int_eq_reif(X_INTRODUCED_12_,Depot,X_INTRODUCED_274_):: defines_var(X_INTRODUCED_274_);
constraint int_le_reif(7,X_INTRODUCED_13_,X_INTRODUCED_277_):: defines_var(X_INTRODUCED_277_);
constraint int_eq_reif(X_INTRODUCED_13_,Depot,X_INTRODUCED_278_):: defines_var(X_INTRODUCED_278_);
solve :: int_search(X_INTRODUCED_49_,first_fail,indomain_min,complete) minimize objective;
